language ESSENCE' 1.0
$ Minion SolverNodes: 3
$ Minion SolverTotalTime: 0.039679
$ Minion SolverTimeOut: 0
$ Savile Row TotalTime: 0.203
letting actionFrom be [4, 3, 2]
letting actionTo be [1, 2, 1]
letting actionValue be [0, 5, 5]
letting states be [[3, 7, 5, 0], 
[0, 7, 5, -1], 
[0, 5, -1, -1], 
[5, -1, -1, -1]]
